p wcnf 18 37 40
40 -1 0
40 1 -2 0
40 1 3 0
40 2 -4 0
40 2 -5 0
40 4 6 -7 0
40 -6 8 -9 0
40 -8 10 11 0
40 -10 12 0
40 -10 13 0
40 -13 14 15 0
40 -14 16 0
40 -14 3 0
40 -11 -12 0
40 -11 -13 0
40 13 -14 0
1 13 -15 0
1 14 -16 -3 0
1 7 -17 0
1 7 -15 0
1 17 -18 -3 0
1 5 -6 7 0
1 6 -8 0
1 6 9 0
1 8 -10 0
1 8 -11 0
1 10 -12 -13 0
1 13 -14 0
1 13 -15 0
1 14 -16 -3 0
1 11 12 13 0
1 -13 14 15 0
1 -14 16 0
1 -14 3 0
1 -7 17 15 0
1 -17 18 0
1 -17 3 0
